p edge 23 30
e 1 3
e 1 4
e 1 6
e 1 15
e 2 4
e 2 5
e 2 10
e 2 18
e 3 6
e 3 14
e 4 15
e 4 17
e 4 18
e 5 10
e 5 19
e 6 13
e 6 22
e 6 23
e 7 10
e 8 9
e 8 11
e 8 12
e 8 20
e 8 23
e 9 23
e 11 20
e 12 17
e 13 16
e 13 21
e 16 18
